============================[ Problem Statistics ]=============================
|                                                                             |
|  Number of variables:          1172                                         |
|  Number of clauses:            6048                                         |
|  Parse time:                   0.00 s                                       |
|  Simplification time:          0.00 s                                       |
|                                                                             |
============================[ Search Statistics ]==============================
| Conflicts |          ORIGINAL         |          LEARNT          | Progress |
|           |    Vars  Clauses Literals |    Limit  Clauses Lit/Cl |          |
===============================================================================
|       100 |    1172     6048    18144 |     2217      100      9 |  0.000 % |
|       250 |    1172     6048    18144 |     2439      250     11 |  0.000 % |
|       475 |    1172     6048    18144 |     2683      475     15 |  0.000 % |
|       812 |    1172     6048    18144 |     2951      812     19 |  0.000 % |
|      1318 |    1172     6048    18144 |     3246     1318     21 |  0.000 % |
|      2077 |    1172     6048    18144 |     3571     2077     24 |  0.000 % |
|      3216 |    1172     6048    18144 |     3928     3216     28 |  0.000 % |
|      4924 |    1172     6048    18144 |     4321     2917     29 |  0.000 % |
|      7486 |    1172     6048    18144 |     4753     3272     31 |  0.000 % |
|     11330 |    1172     6048    18144 |     5228     4682     31 |  0.000 % |
|     17096 |    1172     6048    18144 |     5751     5028     37 |  0.000 % |
|     25745 |    1172     6048    18144 |     6327     4884     28 |  0.000 % |
|     38719 |    1172     6048    18144 |     6959     4985     43 |  0.000 % |
|     58180 |    1172     6048    18144 |     7655     6448     29 |  0.000 % |
|     87372 |    1172     6048    18144 |     8421     4319     42 |  0.000 % |
|    131161 |    1172     6048    18144 |     9263     5046     32 |  0.000 % |
|    196845 |    1172     6048    18144 |    10189     4752     44 |  0.000 % |
|    295371 |    1172     6048    18144 |    11208    10075     35 |  0.000 % |
|    443160 |    1172     6048    18144 |    12329    10251     50 |  0.000 % |
|    664843 |    1172     6048    18144 |    13562     6866     32 |  0.000 % |
|    997368 |    1172     6048    18144 |    14918     9808     51 |  0.000 % |
|   1496156 |    1172     6048    18144 |    16410     9851     31 |  0.000 % |
|   2244338 |    1172     6048    18144 |    18051    11846     50 |  0.000 % |
|   3366612 |    1172     6048    18144 |    19857    12680     31 |  0.000 % |
|   5050023 |    1172     6048    18144 |    21842    12807     51 |  0.000 % |
|   7575139 |    1172     6048    18144 |    24027    17074     54 |  0.000 % |
|  11362814 |    1172     6048    18144 |    26429    20232     52 |  0.000 % |
|  17044326 |    1172     6048    18144 |    29072    16651     47 |  0.000 % |
|  25566595 |    1172     6048    18144 |    31979    20603     59 |  0.000 % |
|  38349998 |    1172     6048    18144 |    35177    16084     53 |  0.000 % |
===============================================================================
restarts              : 66558
conflicts             : 52952393       (12139 /sec)
decisions             : 106164381      (0.00 % random) (24337 /sec)
propagations          : 5779728314     (1324931 /sec)
conflict literals     : 2755169058     (21.70 % deleted)
CPU time              : 4362.29 s

SATISFIABLE
